unknown
(model
; cardinality of BoundSet is 1
(declare-sort BoundSet 0)
; rep: @uc_BoundSet_0
; cardinality of UnboundSet is 1
(declare-sort UnboundSet 0)
(declare-fun groundTerm_2 () UnboundSet)
(define-fun IsInBadShape ((BOUND_VARIABLE_364 BoundSet)) Bool true)
(define-fun MustTearDown ((BOUND_VARIABLE_364 BoundSet)) Bool false)
)
sat
(model
; cardinality of BoundSet is 1
(declare-sort BoundSet 0)
; rep: @uc_BoundSet_0
; cardinality of UnboundSet is 1
(declare-sort UnboundSet 0)
(declare-fun groundTerm_5 () UnboundSet)
(define-fun IsInBadShape ((BOUND_VARIABLE_384 BoundSet)) Bool true)
(define-fun MustTearDown ((BOUND_VARIABLE_384 BoundSet)) Bool false)
)
